(declare-const p37 Real)
(declare-const income Real)
(declare-const p35 Real)
(declare-const p12 Real)
(declare-const p10 Real)
(declare-const fee_bl Real)
(declare-const p32 Real)
(declare-const p22 Real)
(declare-const p24 Real)
(assert (= p10 (* 0.10 (ite (> income 11600) 11600 income))))
(assert (= p12 (ite (> income 11600) (* 0.12 (- (ite (> income 47150) 47150 income) 11600)) 0)))
(assert (= p22 (ite (> income 47150) (* 0.22 (- (ite (> income 100525) 100525 income) 47150)) 0)))
(assert (= p24 (ite (> income 100525) (* 0.24 (- (ite (> income 191950) 191950 income) 100525)) 0)))
(assert (= p32 (ite (> income 191950) (* 0.32 (- (ite (> income 243725) 243725 income) 191950)) 0)))
(assert (= p35 (ite (> income 243725) (* 0.35 (- (ite (> income 609350) 609350 income) 243725)) 0)))
(assert (= p37 (ite (> income 609350) (* 0.37 (- income 609350)) 0)))
(assert (= fee_bl (+ (+ (+ (+ (+ (+ p10 p12) p22) p24) p32) p35) p37)))